c Random generated cnf formula, satisfiable: true
p cnf 10 50
6 2 -4 0
-10 1 -4 0
-3 -6 -1 0
-2 6 -7 0
-8 -3 -9 0
6 3 1 0
4 8 -5 0
-2 1 5 0
4 5 8 0
4 9 8 0
-2 5 -4 0
7 -3 9 0
1 8 9 0
-1 2 3 0
10 1 7 0
-10 1 9 0
7 -5 -8 0
10 -7 -2 0
1 3 -5 0
10 7 1 0
-9 7 8 0
7 4 5 0
8 2 10 0
4 -7 -9 0
10 6 2 0
-3 -9 4 0
1 -2 8 0
-2 -9 10 0
-3 -9 -8 0
2 3 7 0
3 -9 2 0
5 4 2 0
3 -9 -1 0
-5 -6 9 0
-6 1 3 0
-9 -10 5 0
-5 6 1 0
7 -3 10 0
1 4 -7 0
-2 -4 -10 0
-2 1 -3 0
-1 -2 -9 0
8 -9 -7 0
-3 1 6 0
-3 -6 5 0
-7 -2 -6 0
7 4 1 0
-4 8 10 0
7 -9 1 0
9 8 -6 0
